NAME : CHRVRP
COMMENT : master instance for CHRVRP
EDGE_WEIGHT_TYPE : EUC_2D
NODE_COORD_SECTION
V100 40.769e+03 71.077e+03
V101 5.537e+03 96.579e+03
V102 78.853e+03 0.422e+03
S0 50.837e+03 68.389e+03
S1 66.390e+03 40.535e+03
D10 20.846e+03 1.053e+03
D11 48.168e+03 56.120e+03
D12 42.054e+03 81.373e+03
D13 85.918e+03 74.510e+03
D14 17.116e+03 18.911e+03
D15 33.886e+03 0.614e+03
D16 27.053e+03 77.204e+03
D17 69.104e+03 95.783e+03
D18 22.040e+03 70.194e+03
D19 81.195e+03 29.758e+03
EOF
